\Problem name: 

Minimize
OBJROW: -9 X.1 -7 X.2 -10 X.3 -7 X.4 -9 X.5 -6 X.6 -8 X.7 -4 X.8 -9 X.9
Subject To
constr(0):  4 X.1 + 9 X.2 + 4 X.3 + X.4 + 9 X.5 + 6 X.6 + 3 X.7 + 6 X.8 + X.9 <= 40
constr(1):  3 X.1 + 7 X.2 + 8 X.3 + 7 X.4 + 6 X.5 + 3 X.6 + 5 X.7 + 9 X.8 + 4 X.9 <= 80
constr(2):  9 X.1 + 3 X.2 + 6 X.3 + 5 X.4 + 7 X.5 + X.6 + X.7 + 3 X.8 + 9 X.9 <= 40
constr(3):  5 X.1 + 9 X.2 + 6 X.3 + 5 X.4 + 9 X.5 + 7 X.6 + 8 X.7 + 7 X.8 + 8 X.9 <= 10
constr(4):  7 X.1 + 7 X.2 + 4 X.3 + X.4 + 3 X.5 + 4 X.6 + 8 X.7 + X.8 + 9 X.9 <= 10
constr(5):  X.1 + 6 X.2 + 6 X.3 + X.4 + 6 X.5 + 7 X.6 + 3 X.7 + 8 X.8 + 7 X.9 <= 10
constr(6):  6 X.1 + 6 X.2 + 8 X.3 + 6 X.4 + 10 X.5 + 8 X.6 + X.7 + 4 X.8 + 4 X.9 <= 70
constr(7):  9 X.1 + X.2 + 9 X.3 + 7 X.4 + 10 X.5 + 5 X.6 + 6 X.7 + 2 X.8 + 5 X.9 <= 10
constr(8):  2 X.1 + 7 X.2 + 6 X.3 + 5 X.4 + X.5 + X.6 + 9 X.7 + 2 X.8 + X.9 <= 20
Bounds
 0 <= X.1 <= 1
 0 <= X.2 <= 1
 0 <= X.3 <= 1
 0 <= X.4 <= 1
 0 <= X.5 <= 1
 0 <= X.6 <= 1
 0 <= X.7 <= 1
 0 <= X.8 <= 1
 0 <= X.9 <= 1
End
